
Gurobi 8.1.1 (linux64, Python) logging started Sat Jun 29 16:24:51 2019

Academic license - for non-commercial use only

Gurobi 8.1.1 (linux64, Python) logging started Mon Jul  8 11:19:57 2019

Academic license - for non-commercial use only

Gurobi 8.1.1 (linux64, Python) logging started Mon Jul 15 11:53:14 2019

Academic license - for non-commercial use only

Gurobi 8.1.1 (linux64, Python) logging started Mon Jul 15 16:46:26 2019

Academic license - for non-commercial use only

Gurobi 8.1.1 (linux64, Python) logging started Mon Jul 15 16:48:20 2019

Academic license - for non-commercial use only

Gurobi 8.1.1 (linux64, Python) logging started Mon Jul 15 16:49:54 2019

Academic license - for non-commercial use only

Gurobi 8.1.1 (linux64, Python) logging started Mon Jul 15 16:56:46 2019

Academic license - for non-commercial use only

Gurobi 8.1.1 (linux64, Python) logging started Mon Jul 15 17:02:03 2019

Academic license - for non-commercial use only

Gurobi 8.1.1 (linux64, Python) logging started Mon Jul 15 17:02:51 2019

Academic license - for non-commercial use only

Gurobi 8.1.1 (linux64, Python) logging started Mon Jul 15 17:24:32 2019

Academic license - for non-commercial use only

Gurobi 8.1.1 (linux64, Python) logging started Wed Jul 24 12:39:26 2019

Academic license - for non-commercial use only

Gurobi 8.1.1 (linux64, Python) logging started Wed Jul 24 14:20:42 2019

Academic license - for non-commercial use only

Gurobi 8.1.1 (linux64, Python) logging started Wed Jul 24 14:33:32 2019

Academic license - for non-commercial use only

Gurobi 8.1.1 (linux64, Python) logging started Fri Aug 16 14:27:05 2019

Academic license - for non-commercial use only

Gurobi 8.1.1 (linux64, Python) logging started Fri Aug 16 14:31:04 2019

Academic license - for non-commercial use only
